CMD:
./solvers/bin/cadical --plain --no-reduce -t 1600 ./data/cnfs//oski15a10b09s/oski15a10b09s.85.cnf

c --- [ banner ] -------------------------------------------------------------
c 
c CaDiCaL SAT Solver
c Copyright (c) 2016-2024
c A. Biere, M. Fleury, N. Froleyks, K. Fazekas, F. Pollitt, T. Faller
c JKU Linz, University of Freiburg, TU Wien
c 
c Version 2.1.3 5296d3d2a9bf48c154ab2acb5e44625776d821bf
c g++ (Gentoo 12.3.1_p20230526 p2) 12.3.1 20230526 -Wall -Wextra -O3 -DNDEBUG
c Sat Aug 9 07:26:21 PDT 2025 Linux cedar2.int.cedar.computecanada.ca 5.14.0-362.24.2.el9_3.x86_64 x86_64
c 
c --- [ limit ] --------------------------------------------------------------
c 
c setting time limit to 1600 seconds real time (due to '-t 1600')
c 
c --- [ parsing input ] ------------------------------------------------------
c 
c reading DIMACS file from './data/cnfs//oski15a10b09s/oski15a10b09s.85.cnf'
c opening file to read './data/cnfs//oski15a10b09s/oski15a10b09s.85.cnf'
c found 'p cnf 4694461 13686977' header
c parsed 13686977 clauses in 2.27 seconds process time
c 
c --- [ options ] ------------------------------------------------------------
c 
c   --compact=false                (different from default 'true')
c   --decompose=false              (different from default 'true')
c   --deduplicate=false            (different from default 'true')
c   --elim=false                   (different from default 'true')
c   --probe=false                  (different from default 'true')
c   --reduce=false                 (different from default 'true')
c   --subsume=false                (different from default 'true')
c   --ternary=false                (different from default 'true')
c   --transred=false               (different from default 'true')
c   --vivify=false                 (different from default 'true')
c 
c --- [ solving ] ------------------------------------------------------------
c 
c time measured in process time since initialization
c 
c  seconds    reductions  redundant   irredundant
c          MB     restarts       trail          variables
c            level   conflicts       glue             remaining
c 
c *  2.27 1853  0 0   0    0    0  0% 0 10978610 3401841 72%
c {  2.38 1855  0 0   0    0    0  0% 0 10978610 3401841 72%
c i  3.43 1856 415 0  18  397  363 28% 2 10978610 3401837 72%
c i  3.43 1856 413 0  19  399  364 28% 2 10978610 3401833 72%
c i  3.45 1856 398 0  23  501  461 28% 2 10978610 3401832 72%
c i  3.45 1856 403 0  23  504  462 28% 2 10978610 3401831 72%
c i  3.45 1856 408 0  23  507  463 28% 2 10978610 3401830 72%
c i  3.47 1857 492 0  23  534  484 29% 2 10978610 3401803 72%
c i  3.47 1857 497 0  23  539  484 29% 2 10978610 3401776 72%
c i  3.47 1857 502 0  23  544  484 29% 2 10978610 3401749 72%
c i  3.53 1857 598 0  29  611  536 29% 2 10978610 3401612 72%
c i  3.78 1857 440 0  98  865  770 29% 2 10978610 3401604 72%
c i  3.79 1857 433 0 101  879  783 29% 2 10978610 3401602 72%
c }  3.91 1858 387 0 131 1000  894 29% 2 10978610 3401602 72%
c [  3.91 1858  0 0 131 1000  894  0% 0 10978610 3401602 72%
c O  3.92 1858 10 0 131 1002  896 28% 1 10978610 3401602 72%
c i 12.53 1898 23267 0 132 2946 2830 64% 2 10978610 3401595 72%
c i 12.53 1898 23367 0 132 2955 2838 65% 2 10978610 3401584 72%
c i 12.53 1898 23443 0 132 2962 2844 65% 2 10978610 3401564 72%
c i 12.53 1898 23551 0 132 2972 2853 65% 2 10978610 3401544 72%
c 
c  seconds       reductions  redundant   irredundant
c          MB        restarts       trail          variables
c              level    conflicts       glue             remaining
c 
c i 12.53 1898 23615 0 132 2979 2858 65% 2 10978610 3401524 72%
c ] 12.54 1898 23802 0 132 3000 2876 65% 2 10978610 3401515 72%
c { 12.54 1898 387 0 132 3000 2876 29% 2 10978610 3401515 72%
c F 12.73 1898 387 0 133 3003 2879 29% 2 10978610 3401515 72%
c i 15.48 1898 324 0 305 3836 3639 29% 3 10978610 3401507 72%
c i 15.72 1898 272 0 381 4387 4149 29% 3 10978610 3401500 72%
c i 15.72 1898 271 0 381 4396 4157 29% 3 10978610 3401499 72%
c i 15.73 1898 264 0 394 4472 4226 29% 3 10978610 3401492 72%
c i 15.73 1898 263 0 394 4483 4235 29% 3 10978610 3401482 72%
c i 15.75 1898 249 0 399 4655 4388 29% 3 10978610 3401471 72%
c i 15.75 1898 244 0 399 4716 4446 29% 3 10978610 3401461 72%
c i 15.75 1898 244 0 399 4717 4446 29% 3 10978610 3401220 72%
c i 15.93 1898 215 0 457 5291 4957 29% 3 10978610 3401169 72%
c i 15.96 1898 207 0 483 5439 5093 29% 3 10978610 3401164 72%
c i 15.97 1898 203 0 491 5510 5159 29% 3 10978610 3401154 72%
c i 15.99 1898 201 0 502 5567 5213 29% 3 10978610 3401148 72%
c i 16.02 1898 189 0 507 5883 5498 29% 3 10978610 3401140 72%
c i 16.02 1898 188 0 507 5890 5504 29% 3 10978610 3401136 72%
c # 16.08 1898 184 0 526 6005 5610 29% 3 10978610 3401136 72%
c } 16.43 1898 167 0 637 7000 6536 28% 3 10978610 3401136 72%
c 
c  seconds       reductions  redundant   irredundant
c          MB        restarts       trail          variables
c              level    conflicts       glue             remaining
c 
c [ 16.43 1898 23802 0 637 7000 6536 65% 2 10978610 3401136 72%
c i 16.43 1898 23791 0 637 7001 6536 65% 2 10978610 3401134 72%
c i 16.44 1898 23779 0 637 7002 6536 65% 2 10978610 3401132 72%
c i 16.44 1898 23767 0 637 7003 6536 65% 2 10978610 3401131 72%
... skipped 2814 lines ...
c i 1536.79 2341 161 0 77517 1291933 1177698 31% 7 8486141 3377845 72%
c i 1536.81 2341 160 0 77517 1292681 1178393 31% 7 8486141 3377836 72%
c 
c   seconds      reductions         redundant    irredundant
c            MB       restarts              trail         variables
c               level       conflicts           glue            remaining
c 
c i 1537.42 2341 160 0 77545 1294383 1179964 31% 7 8486141 3377835 72%
c i 1537.94 2341 160 0 77575 1295349 1180892 31% 7 8486141 3377834 72%
c i 1538.38 2341 160 0 77602 1296152 1181631 31% 7 8486141 3377829 72%
c i 1541.66 2341 160 0 77800 1300986 1186200 30% 6 8486141 3377823 72%
c i 1546.54 2341 158 0 78120 1304670 1189583 30% 6 8486141 3377816 72%
c i 1548.53 2341 158 0 78223 1305877 1190724 30% 6 8486141 3377812 72%
c i 1549.50 2341 161 0 78225 1306189 1191021 31% 6 8486141 3377809 72%
c i 1549.50 2341 161 0 78225 1306191 1191022 31% 6 8486141 3377784 72%
c i 1549.51 2341 161 0 78225 1306204 1191025 31% 6 8486141 3377608 72%
c i 1549.55 2341 161 0 78227 1306280 1191097 31% 6 8486141 3377606 72%
c i 1549.56 2341 161 0 78227 1306296 1191111 31% 6 8486141 3377605 72%
c i 1549.56 2341 161 0 78227 1306330 1191139 31% 6 8486141 3377604 72%
c i 1549.59 2341 161 0 78227 1306615 1191391 31% 6 8486141 3377582 72%
c i 1549.61 2341 161 0 78227 1306622 1191392 31% 6 8486141 3377576 72%
c i 1549.67 2341 161 0 78227 1306702 1191455 31% 6 8486141 3377565 72%
c i 1549.75 2341 162 0 78227 1306769 1191512 31% 6 8486141 3377555 72%
c i 1549.75 2341 162 0 78227 1306776 1191518 31% 6 8486141 3377554 72%
c i 1549.77 2341 162 0 78227 1306785 1191525 31% 6 8486141 3377550 72%
c i 1549.94 2341 162 0 78233 1306944 1191660 31% 6 8486141 3377534 72%
c i 1549.94 2341 162 0 78233 1306946 1191660 31% 6 8486141 3377518 72%
c 
c   seconds      reductions         redundant    irredundant
c            MB       restarts              trail         variables
c               level       conflicts           glue            remaining
c 
c i 1554.13 2341 164 0 78628 1313000 1197253 31% 6 8486141 3377510 72%
c i 1554.57 2341 165 0 78646 1313614 1197831 31% 6 8486141 3377509 72%
c i 1554.78 2341 167 0 78652 1313980 1198175 31% 6 8486141 3377502 72%
c i 1554.78 2341 167 0 78652 1314024 1198217 31% 6 8486141 3377488 72%
c i 1554.81 2341 168 0 78652 1314180 1198365 31% 6 8486141 3377487 72%
c i 1554.81 2341 168 0 78652 1314182 1198366 31% 6 8486141 3377480 72%
c i 1554.81 2341 168 0 78652 1314189 1198365 31% 6 8486141 3377473 72%
c i 1554.86 2341 168 0 78660 1314358 1198526 31% 6 8486141 3377470 72%
c i 1556.16 2341 169 0 78771 1315900 1199958 31% 6 8486141 3377463 72%
c i 1558.45 2341 169 0 78967 1318772 1202657 31% 6 8486141 3377440 72%
c i 1559.24 2341 169 0 79037 1319067 1202943 31% 6 8486141 3377437 72%
c # 1579.19 2341 166 0 80280 1326087 1209543 31% 7 8486141 3377437 72%
c } 1586.30 2341 164 0 80646 1329306 1212513 31% 7 8486141 3377437 72%
c ? 1586.30 2341 164 0 80646 1329306 1212513 31% 7 8486141 3377437 72%
c 
c --- [ result ] -------------------------------------------------------------
c 
c UNKNOWN
c 
c --- [ run-time profiling ] -------------------------------------------------
c 
c process time taken by individual solving procedures
c (percentage relative to process time for solving)
c 
c      1584.02  100.00% search
c      1017.93   64.26% unstable
c       528.45   33.36% stable
c        37.54    2.37% walk
c         2.27    0.14% parse
c         0.10    0.01% lucky
c         0.00    0.00% simplify
c   =================================
c      1584.02   99.86% solve
c 
c last line shows process time for solving
c (percentage relative to total process time)
c 
c --- [ statistics ] ---------------------------------------------------------
c 
c chronological:            507308        38.16 %  of conflicts
c conflicts:               1329306       839.20    per second
c decisions:              13614060      8594.61    per second
c fixed:                   1317024        28.05 %  of all variables
c learned:                 1286276        96.76 %  per conflict
c learned_lits:           62460165       100.00 %  learned literals
c minimized:                     0         0.00 %  learned literals
c shrunken:                6602781        10.57 %  learned literals
c minishrunken:           12187586        19.51 %  learned literals
c otfs:                       6405         0.48 %  of conflict
c propagations:        11967728437         7.56 M  per second
c rephased:                     51     26064.82    interval
c restarts:                  80646        16.48    interval
c stabilizing:                   5        51.29 %  of conflicts
c subsumed:                  54658         0.45 %  of all clauses
c strengthened:               6177         0.05 %  of all clauses
c walked:                       16     83081.62    interval
c 
c seconds are measured in process time for solving
c 
c --- [ resources ] ----------------------------------------------------------
c 
c total process time since initialization:      1586.30    seconds
c total real time since initialization:         1600.00    seconds
c maximum resident set size of process:         2783.79    MB
c 
c --- [ shutting down ] ------------------------------------------------------
c 
c exit 0
